TCS_Benchmarks/redos_fix/regexlib2_output_distinct_3589_3588_1727_0.txt
(501|(4|5050)0)*
2|40